! bp86 def2-svp

* xyzfile  -4 5 geom.xyz

%eprnmr
nuclei = all Fe {fgrad, rho}
end

