! bp86 def2-svp

* xyzfile 3 6  geom.xyz

%eprnmr
nuclei = all Fe {fgrad, rho}
end

