! bp86 def2-svp

* xyzfile 0 6 geom.xyz

%eprnmr
nuclei = all Fe {fgrad, rho}
end

