! bp86 def2-svp

* xyzfile 1 1 geom.xyz

%eprnmr
nuclei = all Fe {fgrad, rho}
end

