! bp86 def2-svp

* xyzfile -1 5 geom.xyz

%eprnmr
nuclei = all Fe {fgrad, rho}
end

